(set-info :smt-lib-version 2.6)
(set-logic QF_LRA)
(set-info :source | Clock Synchronization. Bruno Dutertre (bruno@csl.sri.com) |)
(set-info :category "industrial")
(set-info :status unsat)
(declare-fun x_0 () Real)
(declare-fun x_1 () Real)
(declare-fun x_2 () Real)
(declare-fun x_3 () Real)
(declare-fun x_4 () Real)
(declare-fun x_5 () Real)
(declare-fun x_6 () Real)
(declare-fun x_7 () Real)
(declare-fun x_8 () Real)
(declare-fun x_9 () Real)
(declare-fun x_10 () Real)
(declare-fun x_11 () Real)
(declare-fun x_12 () Real)
(declare-fun x_13 () Real)
(declare-fun x_14 () Real)
(declare-fun x_15 () Real)
(declare-fun x_16 () Real)
(declare-fun x_17 () Real)
(declare-fun x_18 () Real)
(declare-fun x_19 () Real)
(declare-fun x_20 () Real)
(declare-fun x_21 () Real)
(declare-fun x_22 () Real)
(declare-fun x_23 () Real)
(declare-fun x_24 () Real)
(declare-fun x_25 () Real)
(declare-fun x_26 () Real)
(declare-fun x_27 () Real)
(declare-fun x_28 () Real)
(declare-fun x_29 () Real)
(declare-fun x_30 () Real)
(declare-fun x_31 () Real)
(declare-fun x_32 () Real)
(declare-fun x_33 () Real)
(declare-fun x_34 () Real)
(declare-fun x_35 () Real)
(declare-fun x_36 () Real)
(declare-fun x_37 () Real)
(declare-fun x_38 () Real)
(declare-fun x_39 () Real)
(declare-fun x_40 () Real)
(declare-fun x_41 () Real)
(declare-fun x_42 () Real)
(declare-fun x_43 () Real)
(declare-fun x_44 () Real)
(declare-fun x_45 () Real)
(declare-fun x_46 () Real)
(declare-fun x_47 () Real)
(declare-fun x_48 () Real)
(declare-fun x_49 () Real)
(declare-fun x_50 () Real)
(declare-fun x_51 () Real)
(declare-fun x_52 () Real)
(declare-fun x_53 () Real)
(declare-fun x_54 () Real)
(declare-fun x_55 () Real)
(declare-fun x_56 () Real)
(declare-fun x_57 () Real)
(declare-fun x_58 () Real)
(declare-fun x_59 () Real)
(declare-fun x_60 () Real)
(declare-fun x_61 () Real)
(declare-fun x_62 () Real)
(declare-fun x_63 () Real)
(declare-fun x_64 () Real)
(declare-fun x_65 () Real)
(declare-fun x_66 () Real)
(declare-fun x_67 () Real)
(declare-fun x_68 () Real)
(declare-fun x_69 () Real)
(declare-fun x_70 () Real)
(declare-fun x_71 () Real)
(declare-fun x_72 () Real)
(declare-fun x_73 () Real)
(declare-fun x_74 () Real)
(declare-fun x_75 () Real)
(declare-fun x_76 () Real)
(declare-fun x_77 () Real)
(declare-fun x_78 () Real)
(declare-fun x_79 () Real)
(declare-fun x_80 () Real)
(declare-fun x_81 () Real)
(declare-fun x_82 () Real)
(declare-fun x_83 () Real)
(declare-fun x_84 () Real)
(declare-fun x_85 () Real)
(declare-fun x_86 () Real)
(declare-fun x_87 () Real)
(declare-fun x_88 () Real)
(declare-fun x_89 () Real)
(declare-fun x_90 () Real)
(declare-fun x_91 () Real)
(declare-fun x_92 () Real)
(declare-fun x_93 () Real)
(declare-fun x_94 () Real)
(declare-fun x_95 () Real)
(declare-fun x_96 () Real)
(declare-fun x_97 () Real)
(declare-fun x_98 () Real)
(declare-fun x_99 () Real)
(assert (let ((?v_85 (<= x_23 x_52)) (?v_89 (<= x_26 x_52)) (?v_93 (<= x_29 x_52)) (?v_97 (<= x_32 x_52)) (?v_101 (<= x_35 x_52)) (?v_105 (<= x_38 x_52)) (?v_109 (<= x_41 x_52)) (?v_113 (<= x_44 x_52)) (?v_117 (<= x_47 x_52)) (?v_121 (<= x_50 x_52)) (?v_25 (= x_59 x_52)) (?v_26 (= x_60 x_52)) (?v_27 (= x_61 x_52)) (?v_28 (= x_62 x_52)) (?v_29 (= x_63 x_52)) (?v_30 (= x_64 x_52)) (?v_31 (= x_65 x_52)) (?v_32 (= x_66 x_52)) (?v_33 (= x_67 x_52)) (?v_34 (= x_68 x_52))) (let ((?v_55 (not ?v_25)) (?v_58 (not ?v_26)) (?v_61 (not ?v_27)) (?v_64 (not ?v_28)) (?v_67 (not ?v_29)) (?v_70 (not ?v_30)) (?v_73 (not ?v_31)) (?v_76 (not ?v_32)) (?v_79 (not ?v_33)) (?v_82 (not ?v_34)) (?v_24 (+ (+ x_52 x_53) x_54))) (let ((?v_86 (= x_59 ?v_24)) (?v_90 (= x_60 ?v_24)) (?v_94 (= x_61 ?v_24)) (?v_98 (= x_62 ?v_24)) (?v_102 (= x_63 ?v_24)) (?v_106 (= x_64 ?v_24)) (?v_110 (= x_65 ?v_24)) (?v_114 (= x_66 ?v_24)) (?v_118 (= x_67 ?v_24)) (?v_122 (= x_68 ?v_24))) (let ((?v_155 (not ?v_86))) (let ((?v_125 (and ?v_85 ?v_155)) (?v_156 (not ?v_90))) (let ((?v_128 (and ?v_89 ?v_156)) (?v_157 (not ?v_94))) (let ((?v_131 (and ?v_93 ?v_157)) (?v_158 (not ?v_98))) (let ((?v_134 (and ?v_97 ?v_158)) (?v_159 (not ?v_102))) (let ((?v_137 (and ?v_101 ?v_159)) (?v_160 (not ?v_106))) (let ((?v_140 (and ?v_105 ?v_160)) (?v_161 (not ?v_110))) (let ((?v_143 (and ?v_109 ?v_161)) (?v_162 (not ?v_114))) (let ((?v_146 (and ?v_113 ?v_162)) (?v_163 (not ?v_118))) (let ((?v_149 (and ?v_117 ?v_163)) (?v_164 (not ?v_122))) (let ((?v_152 (and ?v_121 ?v_164)) (?v_2 (- x_1 x_22)) (?v_3 (- x_23 x_24)) (?v_4 (- x_2 x_25)) (?v_5 (- x_26 x_27)) (?v_6 (- x_3 x_28)) (?v_7 (- x_29 x_30)) (?v_8 (- x_4 x_31)) (?v_9 (- x_32 x_33)) (?v_10 (- x_5 x_34)) (?v_11 (- x_35 x_36)) (?v_12 (- x_6 x_37)) (?v_13 (- x_38 x_39)) (?v_14 (- x_7 x_40)) (?v_15 (- x_41 x_42)) (?v_16 (- x_8 x_43)) (?v_17 (- x_44 x_45)) (?v_18 (- x_9 x_46)) (?v_19 (- x_47 x_48)) (?v_20 (- x_10 x_49)) (?v_21 (- x_50 x_51)) (?v_22 (- x_52 x_57)) (?v_23 (- x_52 x_58)) (?v_35 (- x_1 x_12)) (?v_36 (- x_23 x_69)) (?v_37 (- x_2 x_13)) (?v_38 (- x_26 x_70)) (?v_39 (- x_3 x_14)) (?v_40 (- x_29 x_71)) (?v_41 (- x_4 x_15)) (?v_42 (- x_32 x_72)) (?v_43 (- x_5 x_16)) (?v_44 (- x_35 x_73)) (?v_45 (- x_6 x_17)) (?v_46 (- x_38 x_74)) (?v_47 (- x_7 x_18)) (?v_48 (- x_41 x_75)) (?v_49 (- x_8 x_19)) (?v_50 (- x_44 x_76)) (?v_51 (- x_9 x_20)) (?v_52 (- x_47 x_77)) (?v_53 (- x_10 x_21)) (?v_54 (- x_50 x_78)) (?v_56 (- x_1 x_79)) (?v_57 (- x_23 x_52)) (?v_59 (- x_2 x_80)) (?v_60 (- x_26 x_52)) (?v_62 (- x_3 x_81)) (?v_63 (- x_29 x_52)) (?v_65 (- x_4 x_82)) (?v_66 (- x_32 x_52)) (?v_68 (- x_5 x_83)) (?v_69 (- x_35 x_52)) (?v_71 (- x_6 x_84)) (?v_72 (- x_38 x_52)) (?v_74 (- x_7 x_85)) (?v_75 (- x_41 x_52)) (?v_77 (- x_8 x_86)) (?v_78 (- x_44 x_52)) (?v_80 (- x_9 x_87)) (?v_81 (- x_47 x_52)) (?v_83 (- x_10 x_88)) (?v_84 (- x_50 x_52)) (?v_126 (- x_79 x_12))) (let ((?v_87 (* ?v_126 1000)) (?v_88 (* (- x_79 x_21) 1000)) (?v_91 (* (- x_80 x_12) 1000)) (?v_92 (* (- x_80 x_21) 1000)) (?v_95 (* (- x_81 x_12) 1000)) (?v_96 (* (- x_81 x_21) 1000)) (?v_99 (* (- x_82 x_12) 1000)) (?v_100 (* (- x_82 x_21) 1000)) (?v_103 (* (- x_83 x_12) 1000)) (?v_104 (* (- x_83 x_21) 1000)) (?v_107 (* (- x_84 x_12) 1000)) (?v_108 (* (- x_84 x_21) 1000)) (?v_111 (* (- x_85 x_12) 1000)) (?v_112 (* (- x_85 x_21) 1000)) (?v_115 (* (- x_86 x_12) 1000)) (?v_116 (* (- x_86 x_21) 1000)) (?v_119 (* (- x_87 x_12) 1000)) (?v_120 (* (- x_87 x_21) 1000)) (?v_123 (* (- x_88 x_12) 1000)) (?v_153 (- x_88 x_21))) (let ((?v_124 (* ?v_153 1000)) (?v_127 (- x_52 x_69)) (?v_129 (- x_80 x_13)) (?v_130 (- x_52 x_70)) (?v_132 (- x_81 x_14)) (?v_133 (- x_52 x_71)) (?v_135 (- x_82 x_15)) (?v_136 (- x_52 x_72)) (?v_138 (- x_83 x_16)) (?v_139 (- x_52 x_73)) (?v_141 (- x_84 x_17)) (?v_142 (- x_52 x_74)) (?v_144 (- x_85 x_18)) (?v_145 (- x_52 x_75)) (?v_147 (- x_86 x_19)) (?v_148 (- x_52 x_76)) (?v_150 (- x_87 x_20)) (?v_151 (- x_52 x_77)) (?v_154 (- x_52 x_78)) (?v_165 (- x_22 x_79)) (?v_167 (- x_25 x_80)) (?v_169 (- x_28 x_81)) (?v_170 (- x_31 x_82)) (?v_171 (- x_34 x_83)) (?v_172 (- x_37 x_84)) (?v_173 (- x_40 x_85)) (?v_174 (- x_43 x_86)) (?v_175 (- x_46 x_87)) (?v_176 (- x_49 x_88)) (?v_0 (+ x_0 (/ 1001 1000))) (?v_1 (+ x_11 (/ 1001 1000))) (?v_166 (* (* x_54 999) (/ 1 1000))) (?v_168 (* (* x_54 1001) (/ 1 1000))) (?v_177 (+ (+ (+ x_55 x_56) (* (* (+ x_57 x_54) 2) (/ 1 999))) (/ 2335 666)))) (and (and (and (and (and (and (and (and (and (and (and (and (and (and (and (and (and (and (and (and (and (and (and (and (and (and (and (and (and (and (and (and (and (and (and (and (and (and (and (and (and (and (and (and (and (and (and (and (and (and (and (and (and (and (and (and (and (and (and (and (and (and (and (and (and (and (and (and (and (and (and (and (and (and (and (and (and (and (and (and (and (and (and (and (and (and (and (and (and (and (and (and (and (and (and (and (and (and (and (and (and (and (and (and (and (and (and (and (and (and (and (and (and (and (and (and (and (and (and (and (and (and (and (and (and (and (and (and (and (and (and (and (and (and (and (and (and (and (and (and (and (and (and (and (and (and (and (and (and (and (and (and (and (and (and (and (and (and (and (and (and (and (and (and (and (and (and (and (and (and (and (and (and (and (and (and (and (and (and (and (and (and (and (and (and (and (and (and (and (and (and (and (and (and (and (and (and (and (and (and (and (and (and (and (and (and (and (and (and (and (and (and (and (and (and (and (and (and (and (and (and (and (and (and (and (and (and (and (and (and (and (and (and (and (and (and (and (and (and (and (and (and (and (and (and (and (and (and (and (and (and (and (and (and (and (and (and (and (and (and (not (<= x_53 0)) (not (<= x_54 0))) (not (<= x_55 0))) (not (< x_56 (+ x_55 (* (* (+ (* (* x_54 1) (/ 1 2)) 1) 1001) (/ 1 999)))))) (< x_57 (- (* (* (- (- x_54 x_56) 1) 999) (/ 1 2)) 1))) (not (< x_57 (* (* (+ (+ (+ x_53 x_55) x_56) (/ 1501 1000)) 1001) (/ 1 999))))) (not (<= x_58 0))) (<= x_58 (- x_53 (+ (+ x_55 (* (* (+ x_54 2) 1001) (/ 1 999))) (/ 1 2))))) (<= x_0 x_1)) (<= x_0 x_2)) (<= x_0 x_3)) (<= x_0 x_4)) (<= x_0 x_5)) (<= x_0 x_6)) (<= x_0 x_7)) (<= x_0 x_8)) (<= x_0 x_9)) (<= x_0 x_10)) (<= x_1 ?v_0)) (<= x_2 ?v_0)) (<= x_3 ?v_0)) (<= x_4 ?v_0)) (<= x_5 ?v_0)) (<= x_6 ?v_0)) (<= x_7 ?v_0)) (<= x_8 ?v_0)) (<= x_9 ?v_0)) (<= x_10 ?v_0)) (<= x_11 x_12)) (<= x_11 x_13)) (<= x_11 x_14)) (<= x_11 x_15)) (<= x_11 x_16)) (<= x_11 x_17)) (<= x_11 x_18)) (<= x_11 x_19)) (<= x_11 x_20)) (<= x_11 x_21)) (<= x_12 ?v_1)) (<= x_13 ?v_1)) (<= x_14 ?v_1)) (<= x_15 ?v_1)) (<= x_16 ?v_1)) (<= x_17 ?v_1)) (<= x_18 ?v_1)) (<= x_19 ?v_1)) (<= x_20 ?v_1)) (<= x_21 ?v_1)) (<= (* (* ?v_3 999) (/ 1 1000)) ?v_2)) (<= (* (* ?v_5 999) (/ 1 1000)) ?v_4)) (<= (* (* ?v_7 999) (/ 1 1000)) ?v_6)) (<= (* (* ?v_9 999) (/ 1 1000)) ?v_8)) (<= (* (* ?v_11 999) (/ 1 1000)) ?v_10)) (<= (* (* ?v_13 999) (/ 1 1000)) ?v_12)) (<= (* (* ?v_15 999) (/ 1 1000)) ?v_14)) (<= (* (* ?v_17 999) (/ 1 1000)) ?v_16)) (<= (* (* ?v_19 999) (/ 1 1000)) ?v_18)) (<= (* (* ?v_21 999) (/ 1 1000)) ?v_20)) (<= ?v_2 (* (* ?v_3 1001) (/ 1 1000)))) (<= ?v_4 (* (* ?v_5 1001) (/ 1 1000)))) (<= ?v_6 (* (* ?v_7 1001) (/ 1 1000)))) (<= ?v_8 (* (* ?v_9 1001) (/ 1 1000)))) (<= ?v_10 (* (* ?v_11 1001) (/ 1 1000)))) (<= ?v_12 (* (* ?v_13 1001) (/ 1 1000)))) (<= ?v_14 (* (* ?v_15 1001) (/ 1 1000)))) (<= ?v_16 (* (* ?v_17 1001) (/ 1 1000)))) (<= ?v_18 (* (* ?v_19 1001) (/ 1 1000)))) (<= ?v_20 (* (* ?v_21 1001) (/ 1 1000)))) (<= ?v_22 x_69)) (<= ?v_22 x_70)) (<= ?v_22 x_71)) (<= ?v_22 x_72)) (<= ?v_22 x_73)) (<= ?v_22 x_74)) (<= ?v_22 x_75)) (<= ?v_22 x_76)) (<= ?v_22 x_77)) (<= ?v_22 x_78)) (<= x_69 ?v_23)) (<= x_70 ?v_23)) (<= x_71 ?v_23)) (<= x_72 ?v_23)) (<= x_73 ?v_23)) (<= x_74 ?v_23)) (<= x_75 ?v_23)) (<= x_76 ?v_23)) (<= x_77 ?v_23)) (<= x_78 ?v_23)) (<= (- x_69 x_69) x_56)) (<= (- x_70 x_69) x_56)) (<= (- x_71 x_69) x_56)) (<= (- x_72 x_69) x_56)) (<= (- x_73 x_69) x_56)) (<= (- x_74 x_69) x_56)) (<= (- x_75 x_69) x_56)) (<= (- x_76 x_69) x_56)) (<= (- x_77 x_69) x_56)) (<= (- x_78 x_69) x_56)) (<= (- x_69 x_70) x_56)) (<= (- x_70 x_70) x_56)) (<= (- x_71 x_70) x_56)) (<= (- x_72 x_70) x_56)) (<= (- x_73 x_70) x_56)) (<= (- x_74 x_70) x_56)) (<= (- x_75 x_70) x_56)) (<= (- x_76 x_70) x_56)) (<= (- x_77 x_70) x_56)) (<= (- x_78 x_70) x_56)) (<= (- x_69 x_71) x_56)) (<= (- x_70 x_71) x_56)) (<= (- x_71 x_71) x_56)) (<= (- x_72 x_71) x_56)) (<= (- x_73 x_71) x_56)) (<= (- x_74 x_71) x_56)) (<= (- x_75 x_71) x_56)) (<= (- x_76 x_71) x_56)) (<= (- x_77 x_71) x_56)) (<= (- x_78 x_71) x_56)) (<= (- x_69 x_72) x_56)) (<= (- x_70 x_72) x_56)) (<= (- x_71 x_72) x_56)) (<= (- x_72 x_72) x_56)) (<= (- x_73 x_72) x_56)) (<= (- x_74 x_72) x_56)) (<= (- x_75 x_72) x_56)) (<= (- x_76 x_72) x_56)) (<= (- x_77 x_72) x_56)) (<= (- x_78 x_72) x_56)) (<= (- x_69 x_73) x_56)) (<= (- x_70 x_73) x_56)) (<= (- x_71 x_73) x_56)) (<= (- x_72 x_73) x_56)) (<= (- x_73 x_73) x_56)) (<= (- x_74 x_73) x_56)) (<= (- x_75 x_73) x_56)) (<= (- x_76 x_73) x_56)) (<= (- x_77 x_73) x_56)) (<= (- x_78 x_73) x_56)) (<= (- x_69 x_74) x_56)) (<= (- x_70 x_74) x_56)) (<= (- x_71 x_74) x_56)) (<= (- x_72 x_74) x_56)) (<= (- x_73 x_74) x_56)) (<= (- x_74 x_74) x_56)) (<= (- x_75 x_74) x_56)) (<= (- x_76 x_74) x_56)) (<= (- x_77 x_74) x_56)) (<= (- x_78 x_74) x_56)) (<= (- x_69 x_75) x_56)) (<= (- x_70 x_75) x_56)) (<= (- x_71 x_75) x_56)) (<= (- x_72 x_75) x_56)) (<= (- x_73 x_75) x_56)) (<= (- x_74 x_75) x_56)) (<= (- x_75 x_75) x_56)) (<= (- x_76 x_75) x_56)) (<= (- x_77 x_75) x_56)) (<= (- x_78 x_75) x_56)) (<= (- x_69 x_76) x_56)) (<= (- x_70 x_76) x_56)) (<= (- x_71 x_76) x_56)) (<= (- x_72 x_76) x_56)) (<= (- x_73 x_76) x_56)) (<= (- x_74 x_76) x_56)) (<= (- x_75 x_76) x_56)) (<= (- x_76 x_76) x_56)) (<= (- x_77 x_76) x_56)) (<= (- x_78 x_76) x_56)) (<= (- x_69 x_77) x_56)) (<= (- x_70 x_77) x_56)) (<= (- x_71 x_77) x_56)) (<= (- x_72 x_77) x_56)) (<= (- x_73 x_77) x_56)) (<= (- x_74 x_77) x_56)) (<= (- x_75 x_77) x_56)) (<= (- x_76 x_77) x_56)) (<= (- x_77 x_77) x_56)) (<= (- x_78 x_77) x_56)) (<= (- x_69 x_78) x_56)) (<= (- x_70 x_78) x_56)) (<= (- x_71 x_78) x_56)) (<= (- x_72 x_78) x_56)) (<= (- x_73 x_78) x_56)) (<= (- x_74 x_78) x_56)) (<= (- x_75 x_78) x_56)) (<= (- x_76 x_78) x_56)) (<= (- x_77 x_78) x_56)) (<= (- x_78 x_78) x_56)) (or (and ?v_25 (<= x_23 x_89)) ?v_86)) (or (and ?v_26 (<= x_26 x_89)) ?v_90)) (or (and ?v_27 (<= x_29 x_89)) ?v_94)) (or (and ?v_28 (<= x_32 x_89)) ?v_98)) (or (and ?v_29 (<= x_35 x_89)) ?v_102)) (or (and ?v_30 (<= x_38 x_89)) ?v_106)) (or (and ?v_31 (<= x_41 x_89)) ?v_110)) (or (and ?v_32 (<= x_44 x_89)) ?v_114)) (or (and ?v_33 (<= x_47 x_89)) ?v_118)) (or (and ?v_34 (<= x_50 x_89)) ?v_122)) (or (or (or (or (or (or (or (or (or ?v_25 ?v_26) ?v_27) ?v_28) ?v_29) ?v_30) ?v_31) ?v_32) ?v_33) ?v_34)) (or ?v_55 (and (<= (* (* ?v_36 999) (/ 1 1000)) ?v_35) (<= ?v_35 (* (* ?v_36 1001) (/ 1 1000)))))) (or ?v_58 (and (<= (* (* ?v_38 999) (/ 1 1000)) ?v_37) (<= ?v_37 (* (* ?v_38 1001) (/ 1 1000)))))) (or ?v_61 (and (<= (* (* ?v_40 999) (/ 1 1000)) ?v_39) (<= ?v_39 (* (* ?v_40 1001) (/ 1 1000)))))) (or ?v_64 (and (<= (* (* ?v_42 999) (/ 1 1000)) ?v_41) (<= ?v_41 (* (* ?v_42 1001) (/ 1 1000)))))) (or ?v_67 (and (<= (* (* ?v_44 999) (/ 1 1000)) ?v_43) (<= ?v_43 (* (* ?v_44 1001) (/ 1 1000)))))) (or ?v_70 (and (<= (* (* ?v_46 999) (/ 1 1000)) ?v_45) (<= ?v_45 (* (* ?v_46 1001) (/ 1 1000)))))) (or ?v_73 (and (<= (* (* ?v_48 999) (/ 1 1000)) ?v_47) (<= ?v_47 (* (* ?v_48 1001) (/ 1 1000)))))) (or ?v_76 (and (<= (* (* ?v_50 999) (/ 1 1000)) ?v_49) (<= ?v_49 (* (* ?v_50 1001) (/ 1 1000)))))) (or ?v_79 (and (<= (* (* ?v_52 999) (/ 1 1000)) ?v_51) (<= ?v_51 (* (* ?v_52 1001) (/ 1 1000)))))) (or ?v_82 (and (<= (* (* ?v_54 999) (/ 1 1000)) ?v_53) (<= ?v_53 (* (* ?v_54 1001) (/ 1 1000)))))) (or (or ?v_55 ?v_85) (and (and (not (< x_0 x_79)) (<= (* (* ?v_57 999) (/ 1 1000)) ?v_56)) (<= ?v_56 (* (* ?v_57 1001) (/ 1 1000)))))) (or (or ?v_58 ?v_89) (and (and (not (< x_0 x_80)) (<= (* (* ?v_60 999) (/ 1 1000)) ?v_59)) (<= ?v_59 (* (* ?v_60 1001) (/ 1 1000)))))) (or (or ?v_61 ?v_93) (and (and (not (< x_0 x_81)) (<= (* (* ?v_63 999) (/ 1 1000)) ?v_62)) (<= ?v_62 (* (* ?v_63 1001) (/ 1 1000)))))) (or (or ?v_64 ?v_97) (and (and (not (< x_0 x_82)) (<= (* (* ?v_66 999) (/ 1 1000)) ?v_65)) (<= ?v_65 (* (* ?v_66 1001) (/ 1 1000)))))) (or (or ?v_67 ?v_101) (and (and (not (< x_0 x_83)) (<= (* (* ?v_69 999) (/ 1 1000)) ?v_68)) (<= ?v_68 (* (* ?v_69 1001) (/ 1 1000)))))) (or (or ?v_70 ?v_105) (and (and (not (< x_0 x_84)) (<= (* (* ?v_72 999) (/ 1 1000)) ?v_71)) (<= ?v_71 (* (* ?v_72 1001) (/ 1 1000)))))) (or (or ?v_73 ?v_109) (and (and (not (< x_0 x_85)) (<= (* (* ?v_75 999) (/ 1 1000)) ?v_74)) (<= ?v_74 (* (* ?v_75 1001) (/ 1 1000)))))) (or (or ?v_76 ?v_113) (and (and (not (< x_0 x_86)) (<= (* (* ?v_78 999) (/ 1 1000)) ?v_77)) (<= ?v_77 (* (* ?v_78 1001) (/ 1 1000)))))) (or (or ?v_79 ?v_117) (and (and (not (< x_0 x_87)) (<= (* (* ?v_81 999) (/ 1 1000)) ?v_80)) (<= ?v_80 (* (* ?v_81 1001) (/ 1 1000)))))) (or (or ?v_82 ?v_121) (and (and (not (< x_0 x_88)) (<= (* (* ?v_84 999) (/ 1 1000)) ?v_83)) (<= ?v_83 (* (* ?v_84 1001) (/ 1 1000)))))) (or ?v_125 (and (<= x_90 (+ (+ (* (* (+ (+ (+ x_69 (* ?v_87 (/ 1 999))) x_78) (* ?v_88 (/ 1 999))) 1) (/ 1 2)) x_55) (/ 3001 1998))) (not (< x_90 (- (- (* (* (+ (+ (+ x_69 (* ?v_87 (/ 1 1001))) x_78) (* ?v_88 (/ 1 1001))) 1) (/ 1 2)) x_55) (/ 1 2))))))) (or ?v_128 (and (<= x_91 (+ (+ (* (* (+ (+ (+ x_69 (* ?v_91 (/ 1 999))) x_78) (* ?v_92 (/ 1 999))) 1) (/ 1 2)) x_55) (/ 3001 1998))) (not (< x_91 (- (- (* (* (+ (+ (+ x_69 (* ?v_91 (/ 1 1001))) x_78) (* ?v_92 (/ 1 1001))) 1) (/ 1 2)) x_55) (/ 1 2))))))) (or ?v_131 (and (<= x_92 (+ (+ (* (* (+ (+ (+ x_69 (* ?v_95 (/ 1 999))) x_78) (* ?v_96 (/ 1 999))) 1) (/ 1 2)) x_55) (/ 3001 1998))) (not (< x_92 (- (- (* (* (+ (+ (+ x_69 (* ?v_95 (/ 1 1001))) x_78) (* ?v_96 (/ 1 1001))) 1) (/ 1 2)) x_55) (/ 1 2))))))) (or ?v_134 (and (<= x_93 (+ (+ (* (* (+ (+ (+ x_69 (* ?v_99 (/ 1 999))) x_78) (* ?v_100 (/ 1 999))) 1) (/ 1 2)) x_55) (/ 3001 1998))) (not (< x_93 (- (- (* (* (+ (+ (+ x_69 (* ?v_99 (/ 1 1001))) x_78) (* ?v_100 (/ 1 1001))) 1) (/ 1 2)) x_55) (/ 1 2))))))) (or ?v_137 (and (<= x_94 (+ (+ (* (* (+ (+ (+ x_69 (* ?v_103 (/ 1 999))) x_78) (* ?v_104 (/ 1 999))) 1) (/ 1 2)) x_55) (/ 3001 1998))) (not (< x_94 (- (- (* (* (+ (+ (+ x_69 (* ?v_103 (/ 1 1001))) x_78) (* ?v_104 (/ 1 1001))) 1) (/ 1 2)) x_55) (/ 1 2))))))) (or ?v_140 (and (<= x_95 (+ (+ (* (* (+ (+ (+ x_69 (* ?v_107 (/ 1 999))) x_78) (* ?v_108 (/ 1 999))) 1) (/ 1 2)) x_55) (/ 3001 1998))) (not (< x_95 (- (- (* (* (+ (+ (+ x_69 (* ?v_107 (/ 1 1001))) x_78) (* ?v_108 (/ 1 1001))) 1) (/ 1 2)) x_55) (/ 1 2))))))) (or ?v_143 (and (<= x_96 (+ (+ (* (* (+ (+ (+ x_69 (* ?v_111 (/ 1 999))) x_78) (* ?v_112 (/ 1 999))) 1) (/ 1 2)) x_55) (/ 3001 1998))) (not (< x_96 (- (- (* (* (+ (+ (+ x_69 (* ?v_111 (/ 1 1001))) x_78) (* ?v_112 (/ 1 1001))) 1) (/ 1 2)) x_55) (/ 1 2))))))) (or ?v_146 (and (<= x_97 (+ (+ (* (* (+ (+ (+ x_69 (* ?v_115 (/ 1 999))) x_78) (* ?v_116 (/ 1 999))) 1) (/ 1 2)) x_55) (/ 3001 1998))) (not (< x_97 (- (- (* (* (+ (+ (+ x_69 (* ?v_115 (/ 1 1001))) x_78) (* ?v_116 (/ 1 1001))) 1) (/ 1 2)) x_55) (/ 1 2))))))) (or ?v_149 (and (<= x_98 (+ (+ (* (* (+ (+ (+ x_69 (* ?v_119 (/ 1 999))) x_78) (* ?v_120 (/ 1 999))) 1) (/ 1 2)) x_55) (/ 3001 1998))) (not (< x_98 (- (- (* (* (+ (+ (+ x_69 (* ?v_119 (/ 1 1001))) x_78) (* ?v_120 (/ 1 1001))) 1) (/ 1 2)) x_55) (/ 1 2))))))) (or ?v_152 (and (<= x_99 (+ (+ (* (* (+ (+ (+ x_69 (* ?v_123 (/ 1 999))) x_78) (* ?v_124 (/ 1 999))) 1) (/ 1 2)) x_55) (/ 3001 1998))) (not (< x_99 (- (- (* (* (+ (+ (+ x_69 (* ?v_123 (/ 1 1001))) x_78) (* ?v_124 (/ 1 1001))) 1) (/ 1 2)) x_55) (/ 1 2))))))) (or ?v_125 (and (<= (* (* ?v_127 999) (/ 1 1000)) ?v_126) (<= ?v_126 (* (* ?v_127 1001) (/ 1 1000)))))) (or ?v_128 (and (<= (* (* ?v_130 999) (/ 1 1000)) ?v_129) (<= ?v_129 (* (* ?v_130 1001) (/ 1 1000)))))) (or ?v_131 (and (<= (* (* ?v_133 999) (/ 1 1000)) ?v_132) (<= ?v_132 (* (* ?v_133 1001) (/ 1 1000)))))) (or ?v_134 (and (<= (* (* ?v_136 999) (/ 1 1000)) ?v_135) (<= ?v_135 (* (* ?v_136 1001) (/ 1 1000)))))) (or ?v_137 (and (<= (* (* ?v_139 999) (/ 1 1000)) ?v_138) (<= ?v_138 (* (* ?v_139 1001) (/ 1 1000)))))) (or ?v_140 (and (<= (* (* ?v_142 999) (/ 1 1000)) ?v_141) (<= ?v_141 (* (* ?v_142 1001) (/ 1 1000)))))) (or ?v_143 (and (<= (* (* ?v_145 999) (/ 1 1000)) ?v_144) (<= ?v_144 (* (* ?v_145 1001) (/ 1 1000)))))) (or ?v_146 (and (<= (* (* ?v_148 999) (/ 1 1000)) ?v_147) (<= ?v_147 (* (* ?v_148 1001) (/ 1 1000)))))) (or ?v_149 (and (<= (* (* ?v_151 999) (/ 1 1000)) ?v_150) (<= ?v_150 (* (* ?v_151 1001) (/ 1 1000)))))) (or ?v_152 (and (<= (* (* ?v_154 999) (/ 1 1000)) ?v_153) (<= ?v_153 (* (* ?v_154 1001) (/ 1 1000)))))) (or ?v_155 (= x_24 (+ x_90 x_54)))) (or ?v_156 (= x_27 (+ x_91 x_54)))) (or ?v_157 (= x_30 (+ x_92 x_54)))) (or ?v_158 (= x_33 (+ x_93 x_54)))) (or ?v_159 (= x_36 (+ x_94 x_54)))) (or ?v_160 (= x_39 (+ x_95 x_54)))) (or ?v_161 (= x_42 (+ x_96 x_54)))) (or ?v_162 (= x_45 (+ x_97 x_54)))) (or ?v_163 (= x_48 (+ x_98 x_54)))) (or ?v_164 (= x_51 (+ x_99 x_54)))) (or ?v_155 (and (<= ?v_166 ?v_165) (<= ?v_165 ?v_168)))) (or ?v_156 (and (<= ?v_166 ?v_167) (<= ?v_167 ?v_168)))) (or ?v_157 (and (<= ?v_166 ?v_169) (<= ?v_169 ?v_168)))) (or ?v_158 (and (<= ?v_166 ?v_170) (<= ?v_170 ?v_168)))) (or ?v_159 (and (<= ?v_166 ?v_171) (<= ?v_171 ?v_168)))) (or ?v_160 (and (<= ?v_166 ?v_172) (<= ?v_172 ?v_168)))) (or ?v_161 (and (<= ?v_166 ?v_173) (<= ?v_173 ?v_168)))) (or ?v_162 (and (<= ?v_166 ?v_174) (<= ?v_174 ?v_168)))) (or ?v_163 (and (<= ?v_166 ?v_175) (<= ?v_175 ?v_168)))) (or ?v_164 (and (<= ?v_166 ?v_176) (<= ?v_176 ?v_168)))) (= x_89 (+ x_52 x_54))) (or (or (or (or (or (or (or (or (or (or (or (or (or (or (or (or (or (or (or (or (or (or (or (or (or (or (or (or (or (or (or (or (or (or (or (or (or (or (or (or (or (or (or (or (or (or (or (or (or (or (or (or (or (or (or (or (or (or (or (or (or (or (or (or (or (or (or (or (or (or (or (or (or (or (or (or (or (or (or (or (or (or (or (or (or (or (or (or (or (or (or (or (or (or (or (or (or (or (or (not (<= (- x_23 x_23) ?v_177)) (not (<= (- x_26 x_23) ?v_177))) (not (<= (- x_29 x_23) ?v_177))) (not (<= (- x_32 x_23) ?v_177))) (not (<= (- x_35 x_23) ?v_177))) (not (<= (- x_38 x_23) ?v_177))) (not (<= (- x_41 x_23) ?v_177))) (not (<= (- x_44 x_23) ?v_177))) (not (<= (- x_47 x_23) ?v_177))) (not (<= (- x_50 x_23) ?v_177))) (not (<= (- x_23 x_26) ?v_177))) (not (<= (- x_26 x_26) ?v_177))) (not (<= (- x_29 x_26) ?v_177))) (not (<= (- x_32 x_26) ?v_177))) (not (<= (- x_35 x_26) ?v_177))) (not (<= (- x_38 x_26) ?v_177))) (not (<= (- x_41 x_26) ?v_177))) (not (<= (- x_44 x_26) ?v_177))) (not (<= (- x_47 x_26) ?v_177))) (not (<= (- x_50 x_26) ?v_177))) (not (<= (- x_23 x_29) ?v_177))) (not (<= (- x_26 x_29) ?v_177))) (not (<= (- x_29 x_29) ?v_177))) (not (<= (- x_32 x_29) ?v_177))) (not (<= (- x_35 x_29) ?v_177))) (not (<= (- x_38 x_29) ?v_177))) (not (<= (- x_41 x_29) ?v_177))) (not (<= (- x_44 x_29) ?v_177))) (not (<= (- x_47 x_29) ?v_177))) (not (<= (- x_50 x_29) ?v_177))) (not (<= (- x_23 x_32) ?v_177))) (not (<= (- x_26 x_32) ?v_177))) (not (<= (- x_29 x_32) ?v_177))) (not (<= (- x_32 x_32) ?v_177))) (not (<= (- x_35 x_32) ?v_177))) (not (<= (- x_38 x_32) ?v_177))) (not (<= (- x_41 x_32) ?v_177))) (not (<= (- x_44 x_32) ?v_177))) (not (<= (- x_47 x_32) ?v_177))) (not (<= (- x_50 x_32) ?v_177))) (not (<= (- x_23 x_35) ?v_177))) (not (<= (- x_26 x_35) ?v_177))) (not (<= (- x_29 x_35) ?v_177))) (not (<= (- x_32 x_35) ?v_177))) (not (<= (- x_35 x_35) ?v_177))) (not (<= (- x_38 x_35) ?v_177))) (not (<= (- x_41 x_35) ?v_177))) (not (<= (- x_44 x_35) ?v_177))) (not (<= (- x_47 x_35) ?v_177))) (not (<= (- x_50 x_35) ?v_177))) (not (<= (- x_23 x_38) ?v_177))) (not (<= (- x_26 x_38) ?v_177))) (not (<= (- x_29 x_38) ?v_177))) (not (<= (- x_32 x_38) ?v_177))) (not (<= (- x_35 x_38) ?v_177))) (not (<= (- x_38 x_38) ?v_177))) (not (<= (- x_41 x_38) ?v_177))) (not (<= (- x_44 x_38) ?v_177))) (not (<= (- x_47 x_38) ?v_177))) (not (<= (- x_50 x_38) ?v_177))) (not (<= (- x_23 x_41) ?v_177))) (not (<= (- x_26 x_41) ?v_177))) (not (<= (- x_29 x_41) ?v_177))) (not (<= (- x_32 x_41) ?v_177))) (not (<= (- x_35 x_41) ?v_177))) (not (<= (- x_38 x_41) ?v_177))) (not (<= (- x_41 x_41) ?v_177))) (not (<= (- x_44 x_41) ?v_177))) (not (<= (- x_47 x_41) ?v_177))) (not (<= (- x_50 x_41) ?v_177))) (not (<= (- x_23 x_44) ?v_177))) (not (<= (- x_26 x_44) ?v_177))) (not (<= (- x_29 x_44) ?v_177))) (not (<= (- x_32 x_44) ?v_177))) (not (<= (- x_35 x_44) ?v_177))) (not (<= (- x_38 x_44) ?v_177))) (not (<= (- x_41 x_44) ?v_177))) (not (<= (- x_44 x_44) ?v_177))) (not (<= (- x_47 x_44) ?v_177))) (not (<= (- x_50 x_44) ?v_177))) (not (<= (- x_23 x_47) ?v_177))) (not (<= (- x_26 x_47) ?v_177))) (not (<= (- x_29 x_47) ?v_177))) (not (<= (- x_32 x_47) ?v_177))) (not (<= (- x_35 x_47) ?v_177))) (not (<= (- x_38 x_47) ?v_177))) (not (<= (- x_41 x_47) ?v_177))) (not (<= (- x_44 x_47) ?v_177))) (not (<= (- x_47 x_47) ?v_177))) (not (<= (- x_50 x_47) ?v_177))) (not (<= (- x_23 x_50) ?v_177))) (not (<= (- x_26 x_50) ?v_177))) (not (<= (- x_29 x_50) ?v_177))) (not (<= (- x_32 x_50) ?v_177))) (not (<= (- x_35 x_50) ?v_177))) (not (<= (- x_38 x_50) ?v_177))) (not (<= (- x_41 x_50) ?v_177))) (not (<= (- x_44 x_50) ?v_177))) (not (<= (- x_47 x_50) ?v_177))) (not (<= (- x_50 x_50) ?v_177)))))))))))))))))))))
(check-sat)
(exit)
